36 36
23
3 3 27 33
3 4 0 25
3 5 30 15
3 6 0 19
3 7 0 29
3 8 0 11
3 9 22 24
3 10 33 26
3 11 4 0
3 12 33 14
3 14 33 0
3 15 30 0
3 16 30 20
3 24 22 0
3 36 19 0
4 3 3 11
4 11 0 0
4 22 3 14
5 3 22 33
5 4 25 29
5 14 25 0
5 15 25 14
12 36 7 0
% time elapsed: 26.91 s
% time elapsed: 26.91 s
%%%mzn-stat: initTime=0.000344
%%%mzn-stat: solveTime=26.817
%%%mzn-stat: solutions=101
%%%mzn-stat: variables=47
%%%mzn-stat: propagators=28
%%%mzn-stat: propagations=13556503
%%%mzn-stat: nodes=3153618
%%%mzn-stat: failures=1566685
%%%mzn-stat: restarts=1393
%%%mzn-stat: peakDepth=65
%%%mzn-stat-end
